
  12    4
  10   10   10   10

   0   0   0   0   0   3 2 4 6 
   5  10  10  10  10   3 7 5 3 
   3  10  10  10  10   4 11 10 9 8 
   1  10  10  10  10   3 11 8 7 
   3  10  10  10  10   3 11 10 8 
   6  10  10  10  10   3 10 9 8 
   7  10  10  10  10   1 9 
   4  10  10  10  10   1 12
   9  10  10  10  10   1 12
   7  10  10  10  10   1 12
   5  10  10  10  10   1 12
   0   0   0   0   0   0 
